; PUSH cw_2 DUP1 SLOAD SWAP1 SWAP2 SWAP1 => PUSH cw_2 SWAP1 PUSH cw_2 SLOAD
(set-option :produce-proofs true)
; 
(set-info :status unknown)
(declare-fun storage_t ((_ BitVec 256) (_ BitVec 256) (_ BitVec 256) Int (_ BitVec 256)) (_ BitVec 256))
(declare-fun w_2 () (_ BitVec 256))
(declare-fun storage_s ((_ BitVec 256) (_ BitVec 256) (_ BitVec 256) Int (_ BitVec 256)) (_ BitVec 256))
(declare-fun exc_halt_t (Int) Bool)
(declare-fun exc_halt_s (Int) Bool)
(declare-fun stack_t ((_ BitVec 256) (_ BitVec 256) (_ BitVec 256) Int (_ BitVec 6)) (_ BitVec 256))
(declare-fun stack_s ((_ BitVec 256) (_ BitVec 256) (_ BitVec 256) Int (_ BitVec 6)) (_ BitVec 256))
(declare-fun sc_t (Int) (_ BitVec 6))
(declare-fun sc_s (Int) (_ BitVec 6))
(declare-fun used_gas_t ((_ BitVec 256) (_ BitVec 256) (_ BitVec 256) Int) Int)
(declare-fun used_gas_s ((_ BitVec 256) (_ BitVec 256) (_ BitVec 256) Int) Int)
(assert
 (exists ((x_0 (_ BitVec 256)) (x_SLOAD_0 (_ BitVec 256)) )(let (($x9487 (forall ((w (_ BitVec 256)) )(let ((?x6904 (storage_t x_0 x_SLOAD_0 w_2 4 w)))
 (let ((?x723 (storage_s x_0 x_SLOAD_0 w_2 6 w)))
 (= ?x723 ?x6904))))
 ))
 (let (($x7854 (exc_halt_t 4)))
 (let (($x772 (exc_halt_s 6)))
 (let (($x4404 (= $x772 $x7854)))
 (let (($x3387 (forall ((n (_ BitVec 6)) )(let ((?x6230 (stack_t x_0 x_SLOAD_0 w_2 4 n)))
 (let ((?x3855 (stack_s x_0 x_SLOAD_0 w_2 6 n)))
 (let (($x8575 (= ?x3855 ?x6230)))
 (or (bvsle (sc_t 4) n) $x8575)))))
 ))
 (let ((?x4818 (sc_t 4)))
 (let ((?x926 (sc_s 6)))
 (let (($x7899 (= ?x926 ?x4818)))
 (let ((?x3543 (used_gas_t x_0 x_SLOAD_0 w_2 0)))
 (let ((?x6066 (used_gas_s x_0 x_SLOAD_0 w_2 0)))
 (let (($x9772 (= ?x6066 ?x3543)))
 (let (($x6770 (forall ((w (_ BitVec 256)) )(let ((?x8035 (storage_t x_0 x_SLOAD_0 w_2 0 w)))
 (let ((?x1177 (storage_s x_0 x_SLOAD_0 w_2 0 w)))
 (= ?x1177 ?x8035))))
 ))
 (let (($x56 (exc_halt_t 0)))
 (let (($x57 (exc_halt_s 0)))
 (let (($x58 (= $x57 $x56)))
 (let (($x7631 (forall ((n (_ BitVec 6)) )(let ((?x63 (sc_t 0)))
 (let (($x4230 (bvsle ?x63 n)))
 (let ((?x1703 (stack_t x_0 x_SLOAD_0 w_2 0 n)))
 (let ((?x10133 (stack_s x_0 x_SLOAD_0 w_2 0 n)))
 (let (($x1505 (= ?x10133 ?x1703)))
 (or $x1505 $x4230)))))))
 ))
 (let ((?x63 (sc_t 0)))
 (let ((?x72 (sc_s 0)))
 (let (($x73 (= ?x72 ?x63)))
 (let (($x10183 (= $x7854 (or (exc_halt_t 3) (not (bvsle (_ bv0 6) (bvadd (_ bv63 6) (sc_t 3))))))))
 (let (($x11467 (forall ((w (_ BitVec 256)) )(let ((?x9617 (storage_t x_0 x_SLOAD_0 w_2 3 w)))
 (let ((?x6904 (storage_t x_0 x_SLOAD_0 w_2 4 w)))
 (= ?x6904 ?x9617))))
 ))
 (let (($x6118 (forall ((n (_ BitVec 6)) )(let ((?x2103 (stack_t x_0 x_SLOAD_0 w_2 3 n)))
 (let ((?x6230 (stack_t x_0 x_SLOAD_0 w_2 4 n)))
 (or (= ?x6230 ?x2103) (bvsle (bvadd (_ bv63 6) (sc_t 3)) n)))))
 ))
 (let (($x408 (= (used_gas_t x_0 x_SLOAD_0 w_2 4) (+ 200 (used_gas_t x_0 x_SLOAD_0 w_2 3)))))
 (let ((?x8245 (storage_t x_0 x_SLOAD_0 w_2 3 (stack_t x_0 x_SLOAD_0 w_2 3 (bvadd (_ bv63 6) (sc_t 3))))))
 (let (($x2163 (exc_halt_t 2)))
 (let (($x5873 (or $x2163 (not (= ((_ extract 6 6) (bvadd (_ bv1 7) (concat (_ bv0 1) (sc_t 2)))) (_ bv0 1))))))
 (let (($x2670 (exc_halt_t 3)))
 (let (($x9845 (forall ((w (_ BitVec 256)) )(let ((?x8270 (storage_t x_0 x_SLOAD_0 w_2 2 w)))
 (let ((?x9617 (storage_t x_0 x_SLOAD_0 w_2 3 w)))
 (= ?x9617 ?x8270))))
 ))
 (let (($x10411 (forall ((n (_ BitVec 6)) )(let ((?x4517 (stack_t x_0 x_SLOAD_0 w_2 2 n)))
 (let ((?x2103 (stack_t x_0 x_SLOAD_0 w_2 3 n)))
 (or (bvsle (sc_t 2) n) (= ?x2103 ?x4517)))))
 ))
 (let ((?x6023 (used_gas_t x_0 x_SLOAD_0 w_2 3)))
 (let (($x9168 (= $x2163 (or (exc_halt_t 1) (not (bvsle (_ bv0 6) (bvadd (_ bv62 6) (sc_t 1))))))))
 (let (($x11107 (forall ((w (_ BitVec 256)) )(let ((?x1980 (storage_t x_0 x_SLOAD_0 w_2 1 w)))
 (let ((?x8270 (storage_t x_0 x_SLOAD_0 w_2 2 w)))
 (= ?x8270 ?x1980))))
 ))
 (let (($x8702 (forall ((n (_ BitVec 6)) )(let ((?x8544 (stack_t x_0 x_SLOAD_0 w_2 1 n)))
 (let ((?x4517 (stack_t x_0 x_SLOAD_0 w_2 2 n)))
 (or (= ?x4517 ?x8544) (bvsle (bvadd (_ bv62 6) (sc_t 1)) n)))))
 ))
 (let ((?x1377 (used_gas_t x_0 x_SLOAD_0 w_2 2)))
 (let (($x7398 (= (stack_t x_0 x_SLOAD_0 w_2 2 (bvadd (_ bv62 6) (sc_t 2))) (stack_t x_0 x_SLOAD_0 w_2 1 (bvadd (_ bv63 6) (sc_t 1))))))
 (let (($x6075 (= (stack_t x_0 x_SLOAD_0 w_2 2 (bvadd (_ bv63 6) (sc_t 2))) (stack_t x_0 x_SLOAD_0 w_2 1 (bvadd (_ bv62 6) (sc_t 1))))))
 (let (($x8377 (exc_halt_t 1)))
 (let (($x3390 (= $x8377 (or $x56 (not (= ((_ extract 6 6) (bvadd (_ bv1 7) (concat (_ bv0 1) ?x63))) (_ bv0 1)))))))
 (let (($x1006 (forall ((w (_ BitVec 256)) )(let ((?x8035 (storage_t x_0 x_SLOAD_0 w_2 0 w)))
 (let ((?x1980 (storage_t x_0 x_SLOAD_0 w_2 1 w)))
 (= ?x1980 ?x8035))))
 ))
 (let (($x7035 (forall ((n (_ BitVec 6)) )(let ((?x63 (sc_t 0)))
 (let (($x4230 (bvsle ?x63 n)))
 (let ((?x1703 (stack_t x_0 x_SLOAD_0 w_2 0 n)))
 (let ((?x8544 (stack_t x_0 x_SLOAD_0 w_2 1 n)))
 (or (= ?x8544 ?x1703) $x4230))))))
 ))
 (let (($x7592 (= $x772 (or (exc_halt_s 5) (not (bvsle (_ bv0 6) (bvadd (_ bv62 6) (sc_s 5))))))))
 (let (($x6998 (forall ((w (_ BitVec 256)) )(let ((?x5731 (storage_s x_0 x_SLOAD_0 w_2 5 w)))
 (let ((?x723 (storage_s x_0 x_SLOAD_0 w_2 6 w)))
 (= ?x723 ?x5731))))
 ))
 (let (($x5241 (forall ((n (_ BitVec 6)) )(let ((?x4341 (stack_s x_0 x_SLOAD_0 w_2 5 n)))
 (let ((?x3855 (stack_s x_0 x_SLOAD_0 w_2 6 n)))
 (or (bvsle (bvadd (_ bv62 6) (sc_s 5)) n) (= ?x3855 ?x4341)))))
 ))
 (let (($x533 (= (used_gas_s x_0 x_SLOAD_0 w_2 6) (+ 3 (used_gas_s x_0 x_SLOAD_0 w_2 5)))))
 (let ((?x7603 (stack_s x_0 x_SLOAD_0 w_2 5 (bvadd (_ bv63 6) (sc_s 5)))))
 (let ((?x4319 (sc_s 5)))
 (let ((?x2125 (bvadd (_ bv62 6) ?x4319)))
 (let ((?x1331 (stack_s x_0 x_SLOAD_0 w_2 5 ?x2125)))
 (let (($x11317 (exc_halt_s 5)))
 (let (($x5003 (= $x11317 (or (exc_halt_s 4) (not (bvsle (_ bv0 6) (bvadd (_ bv61 6) (sc_s 4))))))))
 (let (($x4652 (forall ((w (_ BitVec 256)) )(let ((?x5741 (storage_s x_0 x_SLOAD_0 w_2 4 w)))
 (let ((?x5731 (storage_s x_0 x_SLOAD_0 w_2 5 w)))
 (= ?x5731 ?x5741))))
 ))
 (let (($x9474 (forall ((n (_ BitVec 6)) )(let ((?x10801 (stack_s x_0 x_SLOAD_0 w_2 4 n)))
 (let ((?x4341 (stack_s x_0 x_SLOAD_0 w_2 5 n)))
 (or (bvsle (bvadd (_ bv61 6) (sc_s 4)) n) (= ?x4341 ?x10801)))))
 ))
 (let ((?x5154 (used_gas_s x_0 x_SLOAD_0 w_2 5)))
 (let ((?x6258 (stack_s x_0 x_SLOAD_0 w_2 4 (bvadd (_ bv63 6) (sc_s 4)))))
 (let (($x7172 (exc_halt_s 4)))
 (let (($x6875 (= $x7172 (or (exc_halt_s 3) (not (bvsle (_ bv0 6) (bvadd (_ bv62 6) (sc_s 3))))))))
 (let (($x7393 (forall ((w (_ BitVec 256)) )(let ((?x7758 (storage_s x_0 x_SLOAD_0 w_2 3 w)))
 (let ((?x5741 (storage_s x_0 x_SLOAD_0 w_2 4 w)))
 (= ?x5741 ?x7758))))
 ))
 (let (($x1473 (forall ((n (_ BitVec 6)) )(let ((?x9573 (stack_s x_0 x_SLOAD_0 w_2 3 n)))
 (let ((?x10801 (stack_s x_0 x_SLOAD_0 w_2 4 n)))
 (or (bvsle (bvadd (_ bv62 6) (sc_s 3)) n) (= ?x10801 ?x9573)))))
 ))
 (let ((?x8275 (used_gas_s x_0 x_SLOAD_0 w_2 4)))
 (let ((?x4924 (stack_s x_0 x_SLOAD_0 w_2 3 (bvadd (_ bv63 6) (sc_s 3)))))
 (let ((?x5180 (stack_s x_0 x_SLOAD_0 w_2 4 (bvadd (_ bv62 6) (sc_s 4)))))
 (let (($x292 (exc_halt_s 3)))
 (let (($x5356 (= $x292 (or (exc_halt_s 2) (not (bvsle (_ bv0 6) (bvadd (_ bv63 6) (sc_s 2))))))))
 (let (($x4486 (forall ((w (_ BitVec 256)) )(let ((?x5943 (storage_s x_0 x_SLOAD_0 w_2 2 w)))
 (let ((?x7758 (storage_s x_0 x_SLOAD_0 w_2 3 w)))
 (= ?x7758 ?x5943))))
 ))
 (let (($x5412 (forall ((n (_ BitVec 6)) )(let ((?x5184 (stack_s x_0 x_SLOAD_0 w_2 2 n)))
 (let ((?x9573 (stack_s x_0 x_SLOAD_0 w_2 3 n)))
 (or (= ?x9573 ?x5184) (bvsle (bvadd (_ bv63 6) (sc_s 2)) n)))))
 ))
 (let ((?x6370 (used_gas_s x_0 x_SLOAD_0 w_2 3)))
 (let ((?x218 (sc_s 2)))
 (let ((?x4853 (bvadd (_ bv63 6) ?x218)))
 (let ((?x10730 (stack_s x_0 x_SLOAD_0 w_2 2 ?x4853)))
 (let (($x189 (exc_halt_s 1)))
 (let (($x475 (or $x189 (not (bvsle (_ bv0 6) (bvadd (_ bv63 6) (sc_s 1)))) (not (= ((_ extract 6 6) (bvadd (_ bv1 7) (concat (_ bv0 1) (sc_s 1)))) (_ bv0 1))))))
 (let (($x247 (exc_halt_s 2)))
 (let (($x10012 (forall ((w (_ BitVec 256)) )(let ((?x10026 (storage_s x_0 x_SLOAD_0 w_2 1 w)))
 (let ((?x5943 (storage_s x_0 x_SLOAD_0 w_2 2 w)))
 (= ?x5943 ?x10026))))
 ))
 (let (($x5661 (forall ((n (_ BitVec 6)) )(let ((?x10598 (stack_s x_0 x_SLOAD_0 w_2 1 n)))
 (let ((?x5184 (stack_s x_0 x_SLOAD_0 w_2 2 n)))
 (or (= ?x5184 ?x10598) (bvsle (bvadd (_ bv63 6) (sc_s 1)) n)))))
 ))
 (let ((?x1647 (used_gas_s x_0 x_SLOAD_0 w_2 2)))
 (let ((?x154 (sc_s 1)))
 (let ((?x4263 (bvadd (_ bv63 6) ?x154)))
 (let ((?x10210 (stack_s x_0 x_SLOAD_0 w_2 1 ?x4263)))
 (let (($x1815 (= $x189 (or $x57 (not (= ((_ extract 6 6) (bvadd (_ bv1 7) (concat (_ bv0 1) ?x72))) (_ bv0 1)))))))
 (let (($x5630 (forall ((w (_ BitVec 256)) )(let ((?x1177 (storage_s x_0 x_SLOAD_0 w_2 0 w)))
 (let ((?x10026 (storage_s x_0 x_SLOAD_0 w_2 1 w)))
 (= ?x10026 ?x1177))))
 ))
 (let (($x10310 (forall ((n (_ BitVec 6)) )(let ((?x10133 (stack_s x_0 x_SLOAD_0 w_2 0 n)))
 (let ((?x10598 (stack_s x_0 x_SLOAD_0 w_2 1 n)))
 (or (bvsle (sc_s 0) n) (= ?x10598 ?x10133)))))
 ))
 (let (($x48 (forall ((w (_ BitVec 256)) )(let ((?x7823 (ite (= w (stack_s x_0 x_SLOAD_0 w_2 2 (bvadd (_ bv63 6) (sc_s 2)))) x_SLOAD_0 (_ bv0 256))))
 (let ((?x1177 (storage_s x_0 x_SLOAD_0 w_2 0 w)))
 (= ?x1177 ?x7823))))
 ))
 (let (($x2943 (= ?x6066 0)))
 (let (($x13 (= (stack_s x_0 x_SLOAD_0 w_2 0 (_ bv0 6)) x_0)))
 (let (($x7315 (= ?x72 (_ bv1 6))))
 (and $x7315 $x13 (not $x57) $x2943 $x48 (= (stack_s x_0 x_SLOAD_0 w_2 1 ?x72) w_2) (= (used_gas_s x_0 x_SLOAD_0 w_2 1) (+ 3 ?x6066)) (= ?x154 (bvadd (_ bv1 6) ?x72)) $x10310 $x5630 $x1815 (= ?x10730 ?x10210) (= (stack_s x_0 x_SLOAD_0 w_2 2 ?x4263) ?x10210) (= ?x1647 (+ 3 (used_gas_s x_0 x_SLOAD_0 w_2 1))) (= ?x218 (bvadd (_ bv1 6) ?x154)) $x5661 $x10012 (= $x247 $x475) (= ?x4924 (storage_s x_0 x_SLOAD_0 w_2 2 ?x10730)) (= ?x6370 (+ 200 ?x1647)) (= (sc_s 3) ?x218) $x5412 $x4486 $x5356 (= ?x6258 (stack_s x_0 x_SLOAD_0 w_2 3 (bvadd (_ bv62 6) (sc_s 3)))) (= ?x5180 ?x4924) (= ?x8275 (+ 3 ?x6370)) (= (sc_s 4) (sc_s 3)) $x1473 $x7393 $x6875 (= ?x7603 (stack_s x_0 x_SLOAD_0 w_2 4 (bvadd (_ bv61 6) (sc_s 4)))) (= (stack_s x_0 x_SLOAD_0 w_2 5 (bvadd (_ bv61 6) ?x4319)) ?x6258) (= ?x1331 ?x5180) (= ?x5154 (+ 3 ?x8275)) (= ?x4319 (sc_s 4)) $x9474 $x4652 $x5003 (= (stack_s x_0 x_SLOAD_0 w_2 6 (bvadd (_ bv63 6) ?x926)) ?x1331) (= (stack_s x_0 x_SLOAD_0 w_2 6 (bvadd (_ bv62 6) ?x926)) ?x7603) $x533 (= ?x926 ?x4319) $x5241 $x6998 $x7592 (= (stack_t x_0 x_SLOAD_0 w_2 1 ?x63) w_2) (= (used_gas_t x_0 x_SLOAD_0 w_2 1) (+ 3 ?x3543)) (= (sc_t 1) (bvadd (_ bv1 6) ?x63)) $x7035 $x1006 $x3390 $x6075 $x7398 (= ?x1377 (+ 3 (used_gas_t x_0 x_SLOAD_0 w_2 1))) (= (sc_t 2) (sc_t 1)) $x8702 $x11107 $x9168 (= (stack_t x_0 x_SLOAD_0 w_2 3 (sc_t 2)) w_2) (= ?x6023 (+ 3 ?x1377)) (= (sc_t 3) (bvadd (_ bv1 6) (sc_t 2))) $x10411 $x9845 (= $x2670 $x5873) (= (stack_t x_0 x_SLOAD_0 w_2 4 (bvadd (_ bv63 6) ?x4818)) ?x8245) $x408 (= ?x4818 (sc_t 3)) $x6118 $x11467 $x10183 $x73 $x7631 $x58 $x6770 $x9772 (not (and $x7899 $x3387 $x4404 $x9487)))))))))))))))))))))))))))))))))))))))))))))))))))))))))))))))))))))))))))))))))))))))))
 )
(check-sat)
(get-proof)
